Minimize
  - 10 y_0 - y_1 - 2 y_2 - 6 y_3 - 10 y_4 - 5 y_5 - 7 y_6 - 6 y_7 - 11 y_8
   - 9 y_9 - 4 y_10 - 8 y_11 - 11 y_12 - 7 y_13 - 6 y_14 - 10 y_15 - 9 y_16
   - 7 y_17 - 3 y_18 - 5 y_19 - 7 y_20 - 5 y_21 - 7 y_22 - 7 y_23 - 7 y_24
   - 9 y_25 - 11 y_26 - 8 y_27 - 7 y_28 - 9 y_29 - 4 y_30 - 6 y_31 - 9 y_32
   - 6 y_33 - 9 y_34 - 9 y_35 - 8 y_36 - 4 y_37 - 4 y_38 - 11 y_39
   - 10 y_40 - 10 y_41 - 8 y_42 - 11 y_43 - 9 y_44 - 8 y_45 - 4 y_46
   - 10 y_47 - 7 y_48 - 8 y_49 - 8 y_50 - 4 y_51 - 6 y_52 - 10 y_53
   - 4 y_54 - 2 y_55 - 8 y_56 - 10 y_57 - 11 y_58 - 9 y_59 - 10 y_60
   - 6 y_61 - 8 y_62 - 11 y_63 - 3 y_64 - 7 y_65 - 10 y_66 - 12 y_67
   - 13 y_68 - 7 y_69 - 8 y_70 - 4 y_71 - 11 y_72 - 8 y_73 - 10 y_74
   - 9 y_75 - 12 y_76 - 8 y_77 - 10 y_78 - 9 y_79 - 11 y_80 - 5 y_82
   - 13 y_83 - 10 y_84 - 3 y_85 - 7 y_86 - 10 y_87 - 6 y_88 - 3 y_89
   - 5 y_90 - 4 y_91 - 10 y_92 - 9 y_93 - 10 y_94 - 8 y_95 - 10 y_96
   - 12 y_97 - 7 y_98 - 3 y_99 + 763 Constant
Subject To
 c_0: y_6 = 1
 c_1_0: y_0 + y_13 + y_15 + y_33 + y_40 + y_41 + y_53 + y_68 + y_74 + y_96
   >= 1
 c_1_1: y_1 + y_2 + y_10 + y_18 + y_30 + y_46 + y_55 + y_64 + y_81 + y_85
   + y_89 + y_91 + y_99 >= 1
 c_1_2: y_1 + y_2 + y_10 + y_30 + y_55 + y_64 + y_81 + y_89 >= 1
 c_1_3: y_3 + y_5 + y_16 + y_17 + y_18 + y_19 + y_22 + y_23 + y_31 + y_32
   + y_45 + y_46 + y_52 + y_61 + y_62 + y_70 + y_73 + y_91 + y_98 >= 1
 c_1_4: y_4 + y_9 + y_24 + y_28 + y_34 + y_36 + y_47 + y_49 + y_57 + y_63
   + y_67 + y_69 + y_76 + y_78 + y_79 + y_80 + y_86 + y_87 + y_88 >= 1
 c_1_5: y_3 + y_5 + y_9 + y_14 + y_17 + y_19 + y_22 + y_24 + y_28 + y_31
   + y_32 + y_37 + y_45 + y_51 + y_52 + y_54 + y_61 + y_62 + y_69 + y_73
   + y_82 + y_86 + y_88 + y_91 + y_98 + y_99 >= 1
 c_1_6: y_6 + y_11 + y_25 + y_27 + y_84 + y_90 >= 1
 c_1_7: y_7 + y_10 + y_14 + y_20 + y_34 + y_36 + y_37 + y_38 + y_49 + y_50
   + y_51 + y_54 + y_59 + y_60 + y_64 + y_71 + y_75 + y_79 + y_82 + y_88
   + y_95 + y_99 >= 1
 c_1_8: y_8 + y_29 + y_42 + y_44 + y_66 >= 1
 c_1_9: y_4 + y_5 + y_9 + y_14 + y_17 + y_24 + y_28 + y_34 + y_36 + y_47
   + y_49 + y_52 + y_57 + y_62 + y_69 + y_73 + y_78 + y_80 + y_86 + y_87
   + y_88 >= 1
 c_1_10: y_1 + y_2 + y_7 + y_10 + y_20 + y_37 + y_38 + y_51 + y_54 + y_55
   + y_64 + y_71 + y_81 + y_82 + y_99 >= 1
 c_1_11: y_6 + y_11 + y_25 + y_77 + y_84 >= 1
 c_1_12: y_12 + y_16 + y_23 + y_26 + y_39 + y_70 + y_83 + y_93 + y_97 >= 1
 c_1_13: y_0 + y_13 + y_33 + y_38 + y_41 + y_48 + y_53 + y_96 >= 1
 c_1_14: y_5 + y_7 + y_9 + y_14 + y_17 + y_19 + y_24 + y_28 + y_34 + y_36
   + y_37 + y_49 + y_50 + y_51 + y_52 + y_54 + y_62 + y_69 + y_78 + y_82
   + y_86 + y_87 + y_88 + y_99 >= 1
 c_1_15: y_0 + y_15 + y_40 + y_74 + y_77 >= 1
 c_1_16: y_3 + y_12 + y_16 + y_17 + y_22 + y_23 + y_26 + y_31 + y_32 + y_39
   + y_45 + y_61 + y_70 + y_73 + y_98 >= 1
 c_1_17: y_3 + y_5 + y_9 + y_14 + y_16 + y_17 + y_19 + y_22 + y_24 + y_28
   + y_31 + y_32 + y_37 + y_45 + y_51 + y_52 + y_61 + y_62 + y_69 + y_70
   + y_73 + y_78 + y_86 + y_88 + y_98 >= 1
 c_1_18: y_1 + y_3 + y_18 + y_19 + y_21 + y_30 + y_31 + y_46 + y_51 + y_61
   + y_81 + y_85 + y_89 + y_91 >= 1
 c_1_19: y_3 + y_5 + y_14 + y_17 + y_18 + y_19 + y_22 + y_23 + y_28 + y_31
   + y_32 + y_37 + y_45 + y_46 + y_51 + y_52 + y_61 + y_62 + y_69 + y_70
   + y_73 + y_86 + y_91 + y_98 >= 1
 c_1_20: y_7 + y_10 + y_20 + y_38 + y_48 + y_59 + y_64 + y_71 + y_75 + y_82
   + y_95 >= 1
 c_1_21: y_18 + y_21 + y_29 + y_30 + y_42 + y_44 + y_46 + y_65 + y_85
   + y_89 + y_90 >= 1
 c_1_22: y_3 + y_5 + y_16 + y_17 + y_19 + y_22 + y_23 + y_26 + y_28 + y_31
   + y_32 + y_45 + y_52 + y_61 + y_62 + y_69 + y_70 + y_73 + y_86 + y_98
   >= 1
 c_1_23: y_3 + y_12 + y_16 + y_19 + y_22 + y_23 + y_31 + y_45 + y_56 + y_61
   + y_70 + y_91 + y_93 + y_98 >= 1
 c_1_24: y_4 + y_5 + y_9 + y_14 + y_17 + y_24 + y_28 + y_34 + y_36 + y_37
   + y_47 + y_49 + y_50 + y_51 + y_52 + y_54 + y_57 + y_62 + y_69 + y_78
   + y_79 + y_80 + y_82 + y_86 + y_87 + y_88 >= 1
 c_1_25: y_6 + y_11 + y_25 + y_27 + y_58 + y_84 >= 1
 c_1_26: y_12 + y_16 + y_22 + y_26 + y_32 + y_39 + y_45 + y_70 + y_73 >= 1
 c_1_27: y_6 + y_25 + y_27 + y_35 + y_58 + y_65 + y_84 + y_90 + y_92 >= 1
 c_1_28: y_4 + y_5 + y_9 + y_14 + y_17 + y_19 + y_22 + y_24 + y_28 + y_31
   + y_32 + y_37 + y_45 + y_51 + y_52 + y_54 + y_57 + y_62 + y_69 + y_73
   + y_78 + y_86 + y_87 + y_88 + y_98 >= 1
 c_1_29: y_8 + y_21 + y_29 + y_35 + y_42 + y_43 + y_44 + y_65 + y_66 + y_94
   >= 1
 c_1_30: y_1 + y_2 + y_18 + y_21 + y_30 + y_46 + y_65 + y_81 + y_85 + y_89
   + y_90 >= 1
 c_1_31: y_3 + y_5 + y_16 + y_17 + y_18 + y_19 + y_22 + y_23 + y_28 + y_31
   + y_32 + y_37 + y_45 + y_46 + y_51 + y_52 + y_61 + y_62 + y_70 + y_73
   + y_86 + y_91 + y_98 >= 1
 c_1_32: y_3 + y_5 + y_16 + y_17 + y_19 + y_22 + y_26 + y_28 + y_31 + y_32
   + y_39 + y_45 + y_52 + y_62 + y_70 + y_73 + y_78 + y_86 + y_98 >= 1
 c_1_33: y_0 + y_13 + y_33 + y_38 + y_41 + y_48 + y_53 + y_96 >= 1
 c_1_34: y_4 + y_7 + y_9 + y_14 + y_24 + y_34 + y_36 + y_47 + y_49 + y_50
   + y_60 + y_63 + y_67 + y_69 + y_76 + y_79 + y_80 + y_82 + y_87 + y_88
   >= 1
 c_1_35: y_27 + y_29 + y_35 + y_43 + y_44 + y_65 + y_72 + y_90 + y_92
   + y_94 >= 1
 c_1_36: y_4 + y_7 + y_9 + y_14 + y_24 + y_34 + y_36 + y_37 + y_47 + y_49
   + y_50 + y_54 + y_60 + y_63 + y_67 + y_69 + y_76 + y_79 + y_80 + y_82
   + y_87 + y_88 >= 1
 c_1_37: y_5 + y_7 + y_10 + y_14 + y_17 + y_19 + y_24 + y_28 + y_31 + y_36
   + y_37 + y_49 + y_51 + y_52 + y_54 + y_62 + y_69 + y_71 + y_82 + y_86
   + y_88 + y_99 >= 1
 c_1_38: y_7 + y_10 + y_13 + y_20 + y_33 + y_38 + y_48 + y_55 + y_64 + y_71
   + y_81 + y_99 >= 1
 c_1_39: y_12 + y_16 + y_26 + y_32 + y_39 + y_45 + y_70 + y_73 >= 1
 c_1_40: y_0 + y_15 + y_40 + y_41 + y_53 + y_68 + y_74 + y_77 >= 1
 c_1_41: y_0 + y_13 + y_33 + y_40 + y_41 + y_48 + y_53 + y_68 + y_74 + y_96
   >= 1
 c_1_42: y_8 + y_21 + y_29 + y_42 + y_44 + y_56 + y_66 >= 1
 c_1_43: y_29 + y_35 + y_43 + y_44 + y_72 + y_92 + y_94 >= 1
 c_1_44: y_8 + y_21 + y_29 + y_35 + y_42 + y_43 + y_44 + y_65 + y_72 + y_90
   + y_92 + y_94 >= 1
 c_1_45: y_3 + y_5 + y_16 + y_17 + y_19 + y_22 + y_23 + y_26 + y_28 + y_31
   + y_32 + y_39 + y_45 + y_52 + y_61 + y_62 + y_70 + y_73 + y_86 + y_98
   >= 1
 c_1_46: y_1 + y_3 + y_18 + y_19 + y_21 + y_30 + y_31 + y_46 + y_61 + y_81
   + y_85 + y_89 + y_91 >= 1
 c_1_47: y_4 + y_9 + y_24 + y_34 + y_36 + y_47 + y_49 + y_50 + y_63 + y_67
   + y_76 + y_79 + y_80 + y_87 + y_88 >= 1
 c_1_48: y_13 + y_20 + y_33 + y_38 + y_41 + y_48 + y_53 + y_95 + y_96 >= 1
 c_1_49: y_4 + y_7 + y_9 + y_14 + y_24 + y_34 + y_36 + y_37 + y_47 + y_49
   + y_50 + y_54 + y_60 + y_63 + y_69 + y_79 + y_80 + y_82 + y_87 + y_88
   >= 1
 c_1_50: y_7 + y_14 + y_24 + y_34 + y_36 + y_47 + y_49 + y_50 + y_54 + y_60
   + y_63 + y_67 + y_75 + y_79 + y_82 + y_88 >= 1
 c_1_51: y_5 + y_7 + y_10 + y_14 + y_17 + y_18 + y_19 + y_24 + y_28 + y_31
   + y_37 + y_51 + y_52 + y_54 + y_64 + y_69 + y_71 + y_81 + y_82 + y_88
   + y_91 + y_99 >= 1
 c_1_52: y_3 + y_5 + y_9 + y_14 + y_17 + y_19 + y_22 + y_24 + y_28 + y_31
   + y_32 + y_37 + y_45 + y_51 + y_52 + y_54 + y_62 + y_69 + y_73 + y_78
   + y_82 + y_86 + y_88 + y_98 + y_99 >= 1
 c_1_53: y_0 + y_13 + y_33 + y_40 + y_41 + y_48 + y_53 + y_68 + y_74 + y_96
   >= 1
 c_1_54: y_5 + y_7 + y_10 + y_14 + y_24 + y_28 + y_36 + y_37 + y_49 + y_50
   + y_51 + y_52 + y_54 + y_64 + y_69 + y_71 + y_82 + y_88 + y_99 >= 1
 c_1_55: y_1 + y_2 + y_10 + y_38 + y_55 + y_64 + y_71 + y_81 >= 1
 c_1_56: y_23 + y_42 + y_56 + y_61 + y_66 + y_93 + y_97 >= 1
 c_1_57: y_4 + y_9 + y_24 + y_28 + y_57 + y_62 + y_69 + y_78 + y_80 + y_86
   + y_87 >= 1
 c_1_58: y_25 + y_27 + y_58 + y_84 + y_92 >= 1
 c_1_59: y_7 + y_20 + y_59 + y_60 + y_75 + y_95 >= 1
 c_1_60: y_7 + y_34 + y_36 + y_49 + y_50 + y_59 + y_60 + y_63 + y_67 + y_75
   + y_79 >= 1
 c_1_61: y_3 + y_5 + y_16 + y_17 + y_18 + y_19 + y_22 + y_23 + y_31 + y_45
   + y_46 + y_56 + y_61 + y_70 + y_73 + y_85 + y_91 + y_93 + y_98 >= 1
 c_1_62: y_3 + y_5 + y_9 + y_14 + y_17 + y_19 + y_22 + y_24 + y_28 + y_31
   + y_32 + y_37 + y_45 + y_52 + y_57 + y_62 + y_69 + y_70 + y_73 + y_78
   + y_86 + y_87 + y_88 + y_98 >= 1
 c_1_63: y_4 + y_34 + y_36 + y_47 + y_49 + y_50 + y_60 + y_63 + y_67 + y_76
   + y_79 + y_80 + y_87 >= 1
 c_1_64: y_1 + y_2 + y_7 + y_10 + y_20 + y_38 + y_51 + y_54 + y_55 + y_64
   + y_71 + y_81 + y_82 + y_99 >= 1
 c_1_65: y_21 + y_27 + y_29 + y_30 + y_35 + y_44 + y_65 + y_89 + y_90
   + y_92 + y_94 >= 1
 c_1_66: y_8 + y_29 + y_42 + y_56 + y_66 + y_93 + y_97 >= 1
 c_1_67: y_4 + y_34 + y_36 + y_47 + y_50 + y_60 + y_63 + y_67 + y_76 + y_79
   + y_80 >= 1
 c_1_68: y_0 + y_40 + y_41 + y_53 + y_68 + y_74 >= 1
 c_1_69: y_4 + y_5 + y_9 + y_14 + y_17 + y_19 + y_22 + y_24 + y_28 + y_34
   + y_36 + y_37 + y_49 + y_51 + y_52 + y_54 + y_57 + y_62 + y_69 + y_73
   + y_78 + y_82 + y_86 + y_87 + y_88 + y_98 + y_99 >= 1
 c_1_70: y_3 + y_12 + y_16 + y_17 + y_19 + y_22 + y_23 + y_26 + y_31 + y_32
   + y_39 + y_45 + y_61 + y_62 + y_70 + y_73 + y_98 >= 1
 c_1_71: y_7 + y_10 + y_20 + y_37 + y_38 + y_51 + y_54 + y_55 + y_64 + y_71
   + y_81 + y_82 + y_99 >= 1
 c_1_72: y_35 + y_43 + y_44 + y_72 + y_92 + y_94 >= 1
 c_1_73: y_3 + y_5 + y_9 + y_16 + y_17 + y_19 + y_22 + y_26 + y_28 + y_31
   + y_32 + y_39 + y_45 + y_52 + y_61 + y_62 + y_69 + y_70 + y_73 + y_78
   + y_86 + y_98 >= 1
 c_1_74: y_0 + y_15 + y_40 + y_41 + y_53 + y_68 + y_74 + y_77 >= 1
 c_1_75: y_7 + y_20 + y_50 + y_59 + y_60 + y_75 + y_95 >= 1
 c_1_76: y_4 + y_34 + y_36 + y_47 + y_63 + y_67 + y_76 + y_79 + y_80 + y_87
   >= 1
 c_1_77: y_11 + y_15 + y_40 + y_74 + y_77 >= 1
 c_1_78: y_4 + y_9 + y_14 + y_17 + y_24 + y_28 + y_32 + y_52 + y_57 + y_62
   + y_69 + y_73 + y_78 + y_80 + y_86 + y_87 + y_88 >= 1
 c_1_79: y_4 + y_7 + y_24 + y_34 + y_36 + y_47 + y_49 + y_50 + y_60 + y_63
   + y_67 + y_76 + y_79 + y_80 + y_87 + y_88 >= 1
 c_1_80: y_4 + y_9 + y_24 + y_34 + y_36 + y_47 + y_49 + y_57 + y_63 + y_67
   + y_76 + y_78 + y_79 + y_80 + y_87 >= 1
 c_1_81: y_1 + y_2 + y_10 + y_18 + y_30 + y_38 + y_46 + y_51 + y_55 + y_64
   + y_71 + y_81 + y_85 + y_89 + y_91 + y_99 >= 1
 c_1_82: y_5 + y_7 + y_10 + y_14 + y_20 + y_24 + y_34 + y_36 + y_37 + y_49
   + y_50 + y_51 + y_52 + y_54 + y_64 + y_69 + y_71 + y_82 + y_88 + y_99
   >= 1
 c_1_83: y_12 + y_83 + y_93 + y_97 >= 1
 c_1_84: y_6 + y_11 + y_25 + y_27 + y_58 + y_84 >= 1
 c_1_85: y_1 + y_18 + y_21 + y_30 + y_46 + y_61 + y_81 + y_85 + y_89 + y_91
   >= 1
 c_1_86: y_4 + y_5 + y_9 + y_14 + y_17 + y_19 + y_22 + y_24 + y_28 + y_31
   + y_32 + y_37 + y_45 + y_52 + y_57 + y_62 + y_69 + y_73 + y_78 + y_86
   + y_87 + y_88 + y_98 >= 1
 c_1_87: y_4 + y_9 + y_14 + y_24 + y_28 + y_34 + y_36 + y_47 + y_49 + y_57
   + y_62 + y_63 + y_69 + y_76 + y_78 + y_79 + y_80 + y_86 + y_87 + y_88
   >= 1
 c_1_88: y_4 + y_5 + y_7 + y_9 + y_14 + y_17 + y_24 + y_28 + y_34 + y_36
   + y_37 + y_47 + y_49 + y_50 + y_51 + y_52 + y_54 + y_62 + y_69 + y_78
   + y_79 + y_82 + y_86 + y_87 + y_88 + y_99 >= 1
 c_1_89: y_1 + y_2 + y_18 + y_21 + y_30 + y_46 + y_65 + y_81 + y_85 + y_89
   + y_90 >= 1
 c_1_90: y_6 + y_21 + y_27 + y_30 + y_35 + y_44 + y_65 + y_89 + y_90 >= 1
 c_1_91: y_1 + y_3 + y_5 + y_18 + y_19 + y_23 + y_31 + y_46 + y_51 + y_61
   + y_81 + y_85 + y_91 + y_98 >= 1
 c_1_92: y_27 + y_35 + y_43 + y_44 + y_58 + y_65 + y_72 + y_92 + y_94 >= 1
 c_1_93: y_12 + y_23 + y_56 + y_61 + y_66 + y_83 + y_93 + y_97 >= 1
 c_1_94: y_29 + y_35 + y_43 + y_44 + y_65 + y_72 + y_92 + y_94 >= 1
 c_1_95: y_7 + y_20 + y_48 + y_59 + y_75 + y_95 >= 1
 c_1_96: y_0 + y_13 + y_33 + y_41 + y_48 + y_53 + y_96 >= 1
 c_1_97: y_12 + y_56 + y_66 + y_83 + y_93 + y_97 >= 1
 c_1_98: y_3 + y_5 + y_16 + y_17 + y_19 + y_22 + y_23 + y_28 + y_31 + y_32
   + y_45 + y_52 + y_61 + y_62 + y_69 + y_70 + y_73 + y_86 + y_91 + y_98
   >= 1
 c_1_99: y_1 + y_5 + y_7 + y_10 + y_14 + y_37 + y_38 + y_51 + y_52 + y_54
   + y_64 + y_69 + y_71 + y_81 + y_82 + y_88 + y_99 >= 1
Bounds
 Constant = 1
Binaries
 y_0 y_1 y_2 y_3 y_4 y_5 y_6 y_7 y_8 y_9 y_10 y_11 y_12 y_13 y_14 y_15 y_16
 y_17 y_18 y_19 y_20 y_21 y_22 y_23 y_24 y_25 y_26 y_27 y_28 y_29 y_30 y_31
 y_32 y_33 y_34 y_35 y_36 y_37 y_38 y_39 y_40 y_41 y_42 y_43 y_44 y_45 y_46
 y_47 y_48 y_49 y_50 y_51 y_52 y_53 y_54 y_55 y_56 y_57 y_58 y_59 y_60 y_61
 y_62 y_63 y_64 y_65 y_66 y_67 y_68 y_69 y_70 y_71 y_72 y_73 y_74 y_75 y_76
 y_77 y_78 y_79 y_80 y_81 y_82 y_83 y_84 y_85 y_86 y_87 y_88 y_89 y_90 y_91
 y_92 y_93 y_94 y_95 y_96 y_97 y_98 y_99
End
